







































































































29 10 46 58 49 5 11 
36 17 66 41 76 52 43 
42 33 7 23 62 
30 18 55 54 50 16 4 
74 27 47 35 15 20 1 
26 48 40 56 64 72 60 
73 65 45 70 19 68 51 2 
13 6 61 67 71 9 8 
59 63 44 53 34 28 37 21 
57 22 3 0 24 75 14 
32 25 39 69 31 38 12 
